c preprocessed version of BN_118, 44 vertices, 658 edges
p td 44 658
1 0
15 0
25 0
20 0
22 0
1 2
1 8
1 5
1 10
1 9
1 12
1 13
1 14
1 16
1 18
1 19
11 1
1 21
4 1
1 24
17 1
15 1
25 1
20 1
22 1
26 1
2 3
4 2
11 2
15 2
22 2
4 3
4 5
4 10
4 9
4 12
4 13
4 11
4 21
4 23
4 24
17 4
15 4
25 4
20 4
22 4
26 4
5 6
5 7
5 8
5 10
5 12
5 13
5 14
5 21
9 5
11 5
17 5
15 5
20 5
22 5
6 7
6 8
9 6
11 6
17 6
15 6
20 6
22 6
8 7
9 7
11 7
17 7
15 7
20 7
22 7
9 8
11 8
17 8
15 8
20 8
22 8
9 10
9 12
9 13
9 18
9 23
9 21
11 9
17 9
15 9
20 9
22 9
11 10
17 10
15 10
20 10
22 10
11 12
11 13
11 18
11 19
11 21
11 24
17 11
15 11
25 11
20 11
22 11
12 13
12 14
12 21
17 12
15 12
20 12
22 12
13 14
13 21
17 13
15 13
20 13
22 13
15 14
15 16
15 18
15 21
15 23
15 24
17 15
15 26
15 25
15 20
15 22
17 16
25 16
20 16
26 16
17 18
17 19
17 21
17 24
17 26
17 25
17 20
17 22
18 19
20 18
22 18
20 19
22 19
20 21
25 20
20 26
20 22
22 21
22 23
22 24
25 22
22 26
25 26
27 37
27 42
27 0
27 38
27 39
27 24
27 6
27 7
27 8
27 5
27 10
27 12
27 13
27 23
27 26
27 16
27 21
27 18
27 33
27 43
27 34
27 25
27 28
27 32
27 30
27 31
27 17
27 15
27 4
27 11
27 35
27 36
27 20
27 1
27 40
27 41
27 22
27 9
27 29
28 37
28 42
28 0
28 38
28 2
28 3
28 8
28 5
28 10
28 23
28 26
28 16
28 18
28 19
28 25
28 30
28 35
28 20
28 40
28 41
28 9
28 29
28 32
28 17
28 33
28 43
28 15
28 4
28 11
28 34
28 36
28 39
28 1
28 22
28 31
29 30
29 31
29 17
29 15
29 4
29 11
29 35
29 36
29 20
29 1
29 40
29 41
29 22
29 9
29 37
29 42
29 6
29 0
29 8
29 26
29 10
29 12
29 2
29 24
29 13
29 14
29 16
29 3
29 18
29 19
29 7
29 23
29 5
29 38
29 39
29 32
29 33
29 34
29 25
29 43
30 37
30 42
30 0
30 38
30 2
30 6
30 7
30 8
30 5
30 23
30 12
30 13
30 14
30 26
30 25
30 16
30 18
30 35
30 20
30 40
30 41
30 9
30 32
30 17
30 33
30 43
30 15
30 4
30 11
30 34
30 36
30 39
30 1
30 22
30 31
31 32
31 17
31 33
31 43
31 15
31 4
31 11
31 34
31 36
31 39
31 1
31 22
31 24
31 37
31 42
31 38
31 2
31 3
31 5
31 10
31 23
31 12
31 13
31 14
31 26
31 25
31 16
31 9
31 35
31 20
31 40
31 41
32 17
32 15
32 36
32 25
32 20
32 39
32 41
32 22
32 26
32 37
32 42
32 0
32 38
32 2
32 3
32 6
32 7
32 8
32 5
32 10
32 35
32 12
32 13
32 14
32 40
32 18
32 19
32 9
32 23
32 24
32 33
32 43
32 34
32 4
32 11
32 1
33 37
33 42
33 0
33 38
33 35
33 5
33 10
33 9
33 12
33 13
33 14
33 40
33 16
33 18
33 19
33 21
33 24
33 34
33 43
33 4
33 11
33 1
33 17
33 15
33 36
33 25
33 20
33 39
33 41
33 22
33 26
34 43
34 37
34 42
34 0
34 38
34 2
34 3
34 35
34 8
34 5
34 9
34 12
34 13
34 40
34 18
34 19
34 11
34 21
34 4
34 23
34 24
34 1
34 17
34 15
34 36
34 25
34 20
34 39
34 41
34 22
35 43
35 37
35 42
35 38
35 2
35 3
35 6
35 7
35 8
35 5
35 10
35 12
35 13
35 14
35 16
35 18
35 19
35 21
35 40
35 9
35 4
35 11
35 1
35 24
35 17
35 15
35 36
35 25
35 20
35 39
35 41
35 22
35 26
36 43
36 17
36 15
36 4
36 11
36 37
36 42
36 9
36 6
36 8
36 26
36 10
36 12
36 2
36 24
36 13
36 14
36 21
36 16
36 3
36 7
36 23
36 5
36 38
36 39
36 1
36 25
36 20
36 40
36 41
36 22
37 43
37 42
37 6
37 12
37 2
37 13
37 21
37 3
37 18
37 19
37 23
37 5
37 38
37 40
37 9
37 4
37 11
37 1
37 24
37 17
37 15
37 20
37 39
37 41
37 22
38 43
38 42
38 0
38 2
38 3
38 8
38 12
38 13
38 14
38 18
38 19
38 23
38 16
38 5
38 40
38 9
38 4
38 11
38 1
38 24
38 17
38 15
38 25
38 20
38 39
38 41
38 22
38 26
39 43
39 17
39 15
39 25
39 20
39 4
39 11
39 42
39 0
39 2
39 3
39 24
39 6
39 12
39 13
39 18
39 23
39 26
39 5
39 1
39 40
39 41
39 22
39 9
40 43
40 42
40 0
40 6
40 7
40 8
40 5
40 9
40 12
40 13
40 14
40 16
40 18
40 19
40 4
40 11
40 1
40 24
40 17
40 15
40 25
40 20
40 41
40 22
40 26
41 43
41 17
41 15
41 25
41 20
41 42
41 2
41 6
41 7
41 8
41 5
41 12
41 13
41 14
41 26
41 18
41 9
41 4
41 11
41 1
41 22
42 43
42 0
42 2
42 3
42 4
42 11
42 1
42 24
42 17
42 15
42 25
42 20
42 22
43 2
43 3
43 6
43 7
43 8
43 5
43 9
43 16
43 18
43 19
43 24
43 4
43 11
43 1
43 17
43 15
43 25
43 20
43 22
43 26
